NAME : eil101.tsp
COMMENT : Optimal tour for eil101.tsp
TYPE : TOUR
DIMENSION : 101
Total Length: 695.360253338022
TOUR_SECTION
1
69
27
52
7
82
48
19
11
63
90
32
10
62
88
31
70
30
20
66
65
71
35
9
51
81
33
50
76
28
101
53
58
40
26
12
80
68
77
3
79
78
34
29
24
54
55
25
39
67
23
56
75
74
72
4
21
73
22
41
15
43
42
87
57
2
13
94
6
89
18
83
60
96
99
59
92
95
97
37
98
93
85
100
91
44
14
38
86
16
61
5
84
17
45
8
46
47
36
49
64
-1
EOF
